problems/csplib-prob015/SchursLemma-models/noch/O2/lingeling/model_1_4-5-17-solution000001.eprime-solution
language ESSENCE' 1.0

letting boxes_PartitionOccurrence_FirstIndex be [1, 3, 4, 6, 9; int(1..5)]
letting boxes_PartitionOccurrence_NumParts be 5
letting boxes_PartitionOccurrence_PartSizes be [4, 5, 1, 1, 6; int(1..5)]
letting boxes_PartitionOccurrence_WhichPart be [1, 1, 2, 3, 1, 4, 2, 2, 5, 5, 5, 5, 2, 5, 1, 5, 2; int(1..17)]
