problems/csplib-prob015/SchursLemma-models/noch/O2/lingeling/model_1_4-5-17-solution000001.solution
language Essence 1.3

letting boxes be partition({1, 2, 5, 15}, {3, 7, 8, 13, 17}, {4}, {6}, {9, 10, 11, 12, 14, 16})
